nK = 947;
nT = 4;
nI = 7;
L = 35;
TT = 220;
np = 1;
nc = 3;
b = [69, 56, 52, 51, 46, 21, 69];
d = [114, 146, 140, 130, 87, 82, 141];
m = [1.8, 2.4, 1.4, 1.7, 1.4, 1.6, 1.9];
pt = [0.26, 0.34, 0.22, 0.22];
st = [11.7, 16.66, 11.66, 12.1];
arc = {<1, 0, 1, 1, 0, 0, 0, [1, 1, 1, 1]>, <2, 1, 2, 1, 0, 0, 0, [1, 1, 1, 1]>, <3, 2, 3, 1, 0, 0, 0, [1, 1, 1, 1]>, <4, 3, 4, 1, 0, 0, 0, [1, 1, 1, 1]>, <5, 4, 5, 1, 0, 0, 0, [1, 1, 1, 1]>, <6, 5, 6, 1, 0, 0, 0, [1, 1, 1, 1]>, <7, 6, 7, 1, 0, 0, 0, [1, 1, 1, 1]>, <8, 7, 8, 1, 0, 0, 0, [1, 1, 1, 1]>, <9, 8, 9, 1, 0, 0, 0, [1, 1, 1, 1]>, <10, 9, 10, 1, 0, 0, 0, [1, 1, 1, 1]>, <11, 10, 11, 1, 0, 0, 0, [1, 1, 1, 1]>, <12, 11, 12, 1, 0, 0, 0, [1, 1, 1, 1]>, <13, 12, 13, 1, 0, 0, 0, [1, 1, 1, 1]>, <14, 13, 14, 1, 0, 0, 0, [1, 1, 1, 1]>, <15, 14, 15, 1, 0, 0, 0, [1, 1, 1, 1]>, <16, 15, 16, 1, 0, 0, 0, [1, 1, 1, 1]>, <17, 16, 17, 1, 0, 0, 0, [1, 1, 1, 1]>, <18, 17, 18, 1, 0, 0, 0, [1, 1, 1, 1]>, <19, 18, 19, 1, 0, 0, 0, [1, 1, 1, 1]>, <20, 19, 20, 1, 0, 0, 0, [1, 1, 1, 1]>, <21, 20, 21, 1, 0, 0, 0, [1, 1, 1, 1]>, <22, 21, 22, 1, 0, 0, 0, [1, 1, 1, 1]>, <23, 22, 23, 1, 0, 0, 0, [1, 1, 1, 1]>, <24, 23, 24, 1, 0, 0, 0, [1, 1, 1, 1]>, <25, 24, 25, 1, 0, 0, 0, [1, 1, 1, 1]>, <26, 25, 26, 1, 0, 0, 0, [1, 1, 1, 1]>, <27, 26, 27, 1, 0, 0, 0, [1, 1, 1, 1]>, <28, 27, 28, 1, 0, 0, 0, [1, 1, 1, 1]>, <29, 28, 29, 1, 0, 0, 0, [1, 1, 1, 1]>, <30, 29, 30, 1, 0, 0, 0, [1, 1, 1, 1]>, <31, 30, 31, 1, 0, 0, 0, [1, 1, 1, 1]>, <32, 31, 32, 1, 0, 0, 0, [1, 1, 1, 1]>, <33, 32, 33, 1, 0, 0, 0, [1, 1, 1, 1]>, <34, 33, 34, 1, 0, 0, 0, [1, 1, 1, 1]>, <35, 34, 35, 1, 0, 0, 0, [1, 1, 1, 1]>, <36, 0, 19, 19, 1, 0, 0, [1, 0, 0, 1]>, <37, 1, 20, 19, 1, 0, 0, [1, 0, 0, 1]>, <38, 2, 21, 19, 1, 0, 0, [1, 0, 0, 1]>, <39, 3, 22, 19, 1, 0, 0, [1, 0, 0, 1]>, <40, 4, 23, 19, 1, 0, 0, [1, 0, 0, 1]>, <41, 5, 24, 19, 1, 0, 0, [1, 0, 0, 1]>, <42, 6, 25, 19, 1, 0, 0, [1, 0, 0, 1]>, <43, 7, 26, 19, 1, 0, 0, [1, 0, 0, 1]>, <44, 8, 27, 19, 1, 0, 0, [1, 0, 0, 1]>, <45, 9, 28, 19, 1, 0, 0, [1, 0, 0, 1]>, <46, 10, 29, 19, 1, 0, 0, [1, 0, 0, 1]>, <47, 11, 30, 19, 1, 0, 0, [1, 0, 0, 1]>, <48, 12, 31, 19, 1, 0, 0, [1, 0, 0, 1]>, <49, 13, 32, 19, 1, 0, 0, [1, 0, 0, 1]>, <50, 14, 33, 19, 1, 0, 0, [1, 0, 0, 1]>, <51, 15, 34, 19, 1, 0, 0, [1, 0, 0, 1]>, <52, 16, 35, 19, 1, 0, 0, [1, 0, 0, 1]>, <53, 0, 21, 21, 2, 0, 1, [1, 1, 0, 0]>, <54, 1, 22, 21, 2, 0, 1, [1, 1, 0, 0]>, <55, 2, 23, 21, 2, 0, 1, [1, 1, 0, 0]>, <56, 3, 24, 21, 2, 0, 1, [1, 1, 0, 0]>, <57, 4, 25, 21, 2, 0, 1, [1, 1, 0, 0]>, <58, 5, 26, 21, 2, 0, 1, [1, 1, 0, 0]>, <59, 6, 27, 21, 2, 0, 1, [1, 1, 0, 0]>, <60, 7, 28, 21, 2, 0, 1, [1, 1, 0, 0]>, <61, 8, 29, 21, 2, 0, 1, [1, 1, 0, 0]>, <62, 9, 30, 21, 2, 0, 1, [1, 1, 0, 0]>, <63, 10, 31, 21, 2, 0, 1, [1, 1, 0, 0]>, <64, 11, 32, 21, 2, 0, 1, [1, 1, 0, 0]>, <65, 12, 33, 21, 2, 0, 1, [1, 1, 0, 0]>, <66, 13, 34, 21, 2, 0, 1, [1, 1, 0, 0]>, <67, 14, 35, 21, 2, 0, 1, [1, 1, 0, 0]>, <68, 0, 20, 20, 3, 0, 1, [1, 0, 0, 1]>, <69, 1, 21, 20, 3, 0, 1, [1, 0, 0, 1]>, <70, 2, 22, 20, 3, 0, 1, [1, 0, 0, 1]>, <71, 3, 23, 20, 3, 0, 1, [1, 0, 0, 1]>, <72, 4, 24, 20, 3, 0, 1, [1, 0, 0, 1]>, <73, 5, 25, 20, 3, 0, 1, [1, 0, 0, 1]>, <74, 6, 26, 20, 3, 0, 1, [1, 0, 0, 1]>, <75, 7, 27, 20, 3, 0, 1, [1, 0, 0, 1]>, <76, 8, 28, 20, 3, 0, 1, [1, 0, 0, 1]>, <77, 9, 29, 20, 3, 0, 1, [1, 0, 0, 1]>, <78, 10, 30, 20, 3, 0, 1, [1, 0, 0, 1]>, <79, 11, 31, 20, 3, 0, 1, [1, 0, 0, 1]>, <80, 12, 32, 20, 3, 0, 1, [1, 0, 0, 1]>, <81, 13, 33, 20, 3, 0, 1, [1, 0, 0, 1]>, <82, 14, 34, 20, 3, 0, 1, [1, 0, 0, 1]>, <83, 15, 35, 20, 3, 0, 1, [1, 0, 0, 1]>, <84, 1, 17, 16, 4, 1, 0, [1, 1, 0, 0]>, <85, 2, 18, 16, 4, 1, 0, [1, 1, 0, 0]>, <86, 3, 19, 16, 4, 1, 0, [1, 1, 0, 0]>, <87, 4, 20, 16, 4, 1, 0, [1, 1, 0, 0]>, <88, 5, 21, 16, 4, 1, 0, [1, 1, 0, 0]>, <89, 6, 22, 16, 4, 1, 0, [1, 1, 0, 0]>, <90, 10, 26, 16, 4, 1, 0, [1, 1, 0, 0]>, <91, 11, 27, 16, 4, 1, 0, [1, 1, 0, 0]>, <92, 12, 28, 16, 4, 1, 0, [1, 1, 0, 0]>, <93, 13, 29, 16, 4, 1, 0, [1, 1, 0, 0]>, <94, 14, 30, 16, 4, 1, 0, [1, 1, 0, 0]>, <95, 15, 31, 16, 4, 1, 0, [1, 1, 0, 0]>, <96, 16, 32, 16, 4, 1, 0, [1, 1, 0, 0]>, <97, 17, 33, 16, 4, 1, 0, [1, 1, 0, 0]>, <98, 18, 34, 16, 4, 1, 0, [1, 1, 0, 0]>, <99, 19, 35, 16, 4, 1, 0, [1, 1, 0, 0]>, <100, 0, 19, 19, 5, 1, 0, [0, 0, 1, 1]>, <101, 1, 20, 19, 5, 1, 0, [0, 0, 1, 1]>, <102, 2, 21, 19, 5, 1, 0, [0, 0, 1, 1]>, <103, 3, 22, 19, 5, 1, 0, [0, 0, 1, 1]>, <104, 4, 23, 19, 5, 1, 0, [0, 0, 1, 1]>, <105, 5, 24, 19, 5, 1, 0, [0, 0, 1, 1]>, <106, 6, 25, 19, 5, 1, 0, [0, 0, 1, 1]>, <107, 7, 26, 19, 5, 1, 0, [0, 0, 1, 1]>, <108, 8, 27, 19, 5, 1, 0, [0, 0, 1, 1]>, <109, 9, 28, 19, 5, 1, 0, [0, 0, 1, 1]>, <110, 10, 29, 19, 5, 1, 0, [0, 0, 1, 1]>, <111, 11, 30, 19, 5, 1, 0, [0, 0, 1, 1]>, <112, 12, 31, 19, 5, 1, 0, [0, 0, 1, 1]>, <113, 13, 32, 19, 5, 1, 0, [0, 0, 1, 1]>, <114, 14, 33, 19, 5, 1, 0, [0, 0, 1, 1]>, <115, 15, 34, 19, 5, 1, 0, [0, 0, 1, 1]>, <116, 16, 35, 19, 5, 1, 0, [0, 0, 1, 1]>, <117, 0, 21, 21, 6, 0, 0, [0, 1, 1, 0]>, <118, 1, 22, 21, 6, 0, 0, [0, 1, 1, 0]>, <119, 2, 23, 21, 6, 0, 0, [0, 1, 1, 0]>, <120, 3, 24, 21, 6, 0, 0, [0, 1, 1, 0]>, <121, 4, 25, 21, 6, 0, 0, [0, 1, 1, 0]>, <122, 5, 26, 21, 6, 0, 0, [0, 1, 1, 0]>, <123, 6, 27, 21, 6, 0, 0, [0, 1, 1, 0]>, <124, 7, 28, 21, 6, 0, 0, [0, 1, 1, 0]>, <125, 8, 29, 21, 6, 0, 0, [0, 1, 1, 0]>, <126, 9, 30, 21, 6, 0, 0, [0, 1, 1, 0]>, <127, 10, 31, 21, 6, 0, 0, [0, 1, 1, 0]>, <128, 11, 32, 21, 6, 0, 0, [0, 1, 1, 0]>, <129, 12, 33, 21, 6, 0, 0, [0, 1, 1, 0]>, <130, 13, 34, 21, 6, 0, 0, [0, 1, 1, 0]>, <131, 14, 35, 21, 6, 0, 0, [0, 1, 1, 0]>, <132, 0, 20, 20, 7, 0, 1, [0, 0, 1, 1]>, <133, 1, 21, 20, 7, 0, 1, [0, 0, 1, 1]>, <134, 2, 22, 20, 7, 0, 1, [0, 0, 1, 1]>, <135, 3, 23, 20, 7, 0, 1, [0, 0, 1, 1]>, <136, 4, 24, 20, 7, 0, 1, [0, 0, 1, 1]>, <137, 5, 25, 20, 7, 0, 1, [0, 0, 1, 1]>, <138, 6, 26, 20, 7, 0, 1, [0, 0, 1, 1]>, <139, 7, 27, 20, 7, 0, 1, [0, 0, 1, 1]>, <140, 8, 28, 20, 7, 0, 1, [0, 0, 1, 1]>, <141, 9, 29, 20, 7, 0, 1, [0, 0, 1, 1]>, <142, 10, 30, 20, 7, 0, 1, [0, 0, 1, 1]>, <143, 11, 31, 20, 7, 0, 1, [0, 0, 1, 1]>, <144, 12, 32, 20, 7, 0, 1, [0, 0, 1, 1]>, <145, 13, 33, 20, 7, 0, 1, [0, 0, 1, 1]>, <146, 14, 34, 20, 7, 0, 1, [0, 0, 1, 1]>, <147, 15, 35, 20, 7, 0, 1, [0, 0, 1, 1]>};
